51
1 0 2
2 0 12
2 1 29
3 0 7
3 1 29
3 2 18
4 0 40
4 1 41
4 2 3
4 3 9
5 0 13
5 1 14
5 2 14
5 3 3
5 4 20
6 0 27
6 1 14
6 2 38
6 3 9
6 4 1
6 5 16
7 0 13
7 1 9
7 2 7
7 3 5
7 4 5
7 5 40
7 6 37
8 0 1
8 1 2
8 2 10
8 3 6
8 4 36
8 5 45
8 6 11
8 7 32
9 0 31
9 1 44
9 2 19
9 3 25
9 4 13
9 5 25
9 6 17
9 7 11
9 8 45
10 0 8
10 1 11
10 2 9
10 3 45
10 4 44
10 5 4
10 6 41
10 7 40
10 8 27
10 9 43
11 0 8
11 1 41
11 2 2
11 3 17
11 4 8
11 5 31
11 6 44
11 7 24
11 8 21
11 9 40
11 10 37
12 0 26
12 1 30
12 2 43
12 3 5
12 4 13
12 5 42
12 6 9
12 7 36
12 8 29
12 9 1
12 10 27
12 11 1
13 0 33
13 1 5
13 2 15
13 3 44
13 4 41
13 5 39
13 6 30
13 7 11
13 8 22
13 9 22
13 10 40
13 11 28
13 12 2
14 0 22
14 1 18
14 2 4
14 3 18
14 4 32
14 5 42
14 6 43
14 7 28
14 8 30
14 9 42
14 10 42
14 11 29
14 12 10
14 13 9
15 0 25
15 1 31
15 2 9
15 3 16
15 4 29
15 5 43
15 6 29
15 7 1
15 8 22
15 9 43
15 10 20
15 11 17
15 12 40
15 13 42
15 14 35
16 0 41
16 1 12
16 2 12
16 3 31
16 4 8
16 5 27
16 6 23
16 7 20
16 8 42
16 9 32
16 10 16
16 11 30
16 12 8
16 13 19
16 14 22
16 15 28
17 0 35
17 1 15
17 2 42
17 3 26
17 4 36
17 5 10
17 6 7
17 7 30
17 8 23
17 9 35
17 10 13
17 11 20
17 12 5
17 13 26
17 14 44
17 15 39
17 16 8
18 0 39
18 1 1
18 2 44
18 3 29
18 4 18
18 5 22
18 6 38
18 7 40
18 8 26
18 9 13
18 10 38
18 11 41
18 12 22
18 13 5
18 14 23
18 15 44
18 16 25
18 17 14
19 0 11
19 1 7
19 2 5
19 3 13
19 4 34
19 5 22
19 6 36
19 7 11
19 8 42
19 9 38
19 10 38
19 11 21
19 12 32
19 13 33
19 14 31
19 15 19
19 16 37
19 17 18
19 18 5
20 0 22
20 1 38
20 2 13
20 3 10
20 4 44
20 5 31
20 6 25
20 7 44
20 8 32
20 9 20
20 10 45
20 11 29
20 12 26
20 13 25
20 14 3
20 15 41
20 16 24
20 17 5
20 18 16
20 19 10
21 0 44
21 1 15
21 2 3
21 3 30
21 4 37
21 5 20
21 6 1
21 7 23
21 8 16
21 9 1
21 10 29
21 11 1
21 12 30
21 13 45
21 14 28
21 15 27
21 16 24
21 17 45
21 18 9
21 19 34
21 20 39
22 0 10
22 1 30
22 2 45
22 3 2
22 4 11
22 5 42
22 6 20
22 7 40
22 8 31
22 9 39
22 10 23
22 11 44
22 12 18
22 13 7
22 14 24
22 15 31
22 16 22
22 17 20
22 18 27
22 19 41
22 20 31
22 21 32
23 0 12
23 1 33
23 2 28
23 3 43
23 4 40
23 5 12
23 6 44
23 7 11
23 8 32
23 9 5
23 10 37
23 11 1
23 12 1
23 13 44
23 14 18
23 15 28
23 16 36
23 17 30
23 18 9
23 19 22
23 20 38
23 21 31
23 22 10
24 0 3
24 1 21
24 2 15
24 3 21
24 4 35
24 5 36
24 6 41
24 7 18
24 8 24
24 9 31
24 10 22
24 11 37
24 12 19
24 13 26
24 14 2
24 15 8
24 16 36
24 17 35
24 18 20
24 19 23
24 20 36
24 21 10
24 22 9
24 23 21
25 0 38
25 1 18
25 2 2
25 3 5
25 4 7
25 5 12
25 6 39
25 7 15
25 8 36
25 9 2
25 10 15
25 11 13
25 12 39
25 13 21
25 14 24
25 15 3
25 16 12
25 17 45
25 18 14
25 19 20
25 20 35
25 21 22
25 22 44
25 23 27
25 24 16
26 0 42
26 1 37
26 2 40
26 3 44
26 4 5
26 5 26
26 6 19
26 7 34
26 8 45
26 9 25
26 10 32
26 11 28
26 12 28
26 13 13
26 14 32
26 15 39
26 16 20
26 17 45
26 18 9
26 19 44
26 20 28
26 21 34
26 22 5
26 23 34
26 24 34
26 25 35
27 0 10
27 1 42
27 2 35
27 3 39
27 4 31
27 5 6
27 6 14
27 7 36
27 8 40
27 9 16
27 10 18
27 11 26
27 12 27
27 13 24
27 14 33
27 15 28
27 16 5
27 17 1
27 18 31
27 19 9
27 20 35
27 21 42
27 22 23
27 23 41
27 24 37
27 25 22
27 26 38
28 0 42
28 1 17
28 2 2
28 3 18
28 4 5
28 5 32
28 6 20
28 7 2
28 8 35
28 9 18
28 10 38
28 11 8
28 12 41
28 13 33
28 14 45
28 15 40
28 16 36
28 17 41
28 18 35
28 19 4
28 20 6
28 21 15
28 22 23
28 23 3
28 24 37
28 25 22
28 26 14
28 27 31
29 0 24
29 1 4
29 2 16
29 3 21
29 4 11
29 5 12
29 6 45
29 7 13
29 8 34
29 9 15
29 10 5
29 11 11
29 12 22
29 13 6
29 14 1
29 15 43
29 16 15
29 17 7
29 18 38
29 19 27
29 20 22
29 21 32
29 22 8
29 23 2
29 24 44
29 25 12
29 26 31
29 27 17
29 28 43
30 0 14
30 1 20
30 2 6
30 3 27
30 4 18
30 5 28
30 6 19
30 7 18
30 8 31
30 9 34
30 10 34
30 11 38
30 12 21
30 13 22
30 14 37
30 15 6
30 16 42
30 17 30
30 18 15
30 19 17
30 20 9
30 21 8
30 22 32
30 23 4
30 24 44
30 25 45
30 26 2
30 27 23
30 28 34
30 29 6
31 0 6
31 1 19
31 2 12
31 3 21
31 4 35
31 5 37
31 6 27
31 7 42
31 8 20
31 9 44
31 10 7
31 11 13
31 12 3
31 13 39
31 14 20
31 15 15
31 16 33
31 17 31
31 18 17
31 19 31
31 20 7
31 21 42
31 22 22
31 23 9
31 24 33
31 25 35
31 26 12
31 27 25
31 28 43
31 29 7
31 30 27
32 0 44
32 1 42
32 2 30
32 3 45
32 4 35
32 5 10
32 6 13
32 7 43
32 8 9
32 9 45
32 10 3
32 11 34
32 12 43
32 13 24
32 14 2
32 15 24
32 16 13
32 17 16
32 18 21
32 19 29
32 20 27
32 21 26
32 22 7
32 23 1
32 24 25
32 25 16
32 26 42
32 27 31
32 28 37
32 29 11
32 30 38
32 31 27
33 0 20
33 1 15
33 2 15
33 3 35
33 4 24
33 5 40
33 6 45
33 7 14
33 8 42
33 9 14
33 10 36
33 11 9
33 12 42
33 13 22
33 14 43
33 15 4
33 16 13
33 17 32
33 18 32
33 19 25
33 20 37
33 21 4
33 22 40
33 23 17
33 24 39
33 25 28
33 26 34
33 27 5
33 28 42
33 29 42
33 30 30
33 31 27
33 32 16
34 0 44
34 1 27
34 2 22
34 3 7
34 4 2
34 5 23
34 6 44
34 7 43
34 8 21
34 9 37
34 10 41
34 11 42
34 12 17
34 13 2
34 14 20
34 15 6
34 16 17
34 17 3
34 18 28
34 19 19
34 20 19
34 21 9
34 22 32
34 23 10
34 24 40
34 25 33
34 26 45
34 27 30
34 28 27
34 29 14
34 30 21
34 31 28
34 32 27
34 33 44
35 0 34
35 1 40
35 2 34
35 3 15
35 4 40
35 5 36
35 6 18
35 7 38
35 8 44
35 9 24
35 10 31
35 11 8
35 12 1
35 13 1
35 14 22
35 15 7
35 16 3
35 17 21
35 18 34
35 19 43
35 20 31
35 21 34
35 22 41
35 23 12
35 24 24
35 25 5
35 26 20
35 27 29
35 28 9
35 29 38
35 30 3
35 31 27
35 32 41
35 33 16
35 34 45
36 0 25
36 1 24
36 2 15
36 3 40
36 4 11
36 5 10
36 6 38
36 7 5
36 8 3
36 9 17
36 10 4
36 11 39
36 12 4
36 13 38
36 14 34
36 15 29
36 16 14
36 17 30
36 18 8
36 19 36
36 20 1
36 21 32
36 22 45
36 23 15
36 24 10
36 25 41
36 26 37
36 27 19
36 28 41
36 29 45
36 30 3
36 31 29
36 32 15
36 33 3
36 34 9
36 35 31
37 0 23
37 1 10
37 2 43
37 3 20
37 4 43
37 5 8
37 6 42
37 7 1
37 8 45
37 9 28
37 10 6
37 11 1
37 12 13
37 13 26
37 14 12
37 15 6
37 16 30
37 17 10
37 18 21
37 19 38
37 20 36
37 21 38
37 22 4
37 23 37
37 24 6
37 25 40
37 26 41
37 27 23
37 28 18
37 29 13
37 30 21
37 31 19
37 32 35
37 33 15
37 34 24
37 35 33
37 36 2
38 0 13
38 1 5
38 2 4
38 3 26
38 4 43
38 5 9
38 6 15
38 7 13
38 8 4
38 9 20
38 10 41
38 11 11
38 12 27
38 13 15
38 14 9
38 15 42
38 16 20
38 17 18
38 18 33
38 19 36
38 20 13
38 21 34
38 22 18
38 23 29
38 24 31
38 25 3
38 26 33
38 27 18
38 28 35
38 29 16
38 30 11
38 31 4
38 32 33
38 33 34
38 34 2
38 35 27
38 36 8
38 37 32
39 0 22
39 1 27
39 2 25
39 3 12
39 4 30
39 5 36
39 6 9
39 7 40
39 8 19
39 9 18
39 10 17
39 11 16
39 12 36
39 13 15
39 14 30
39 15 44
39 16 3
39 17 30
39 18 22
39 19 13
39 20 14
39 21 23
39 22 26
39 23 34
39 24 21
39 25 38
39 26 37
39 27 1
39 28 24
39 29 21
39 30 22
39 31 9
39 32 42
39 33 41
39 34 3
39 35 45
39 36 20
39 37 40
39 38 13
40 0 9
40 1 13
40 2 39
40 3 25
40 4 35
40 5 45
40 6 21
40 7 20
40 8 39
40 9 17
40 10 9
40 11 30
40 12 22
40 13 36
40 14 20
40 15 31
40 16 10
40 17 10
40 18 31
40 19 4
40 20 28
40 21 2
40 22 33
40 23 43
40 24 23
40 25 27
40 26 42
40 27 22
40 28 4
40 29 37
40 30 3
40 31 43
40 32 37
40 33 19
40 34 12
40 35 7
40 36 21
40 37 26
40 38 42
40 39 41
41 0 16
41 1 10
41 2 34
41 3 44
41 4 18
41 5 43
41 6 17
41 7 42
41 8 42
41 9 29
41 10 4
41 11 16
41 12 20
41 13 40
41 14 27
41 15 29
41 16 9
41 17 5
41 18 37
41 19 22
41 20 35
41 21 44
41 22 21
41 23 14
41 24 9
41 25 10
41 26 23
41 27 31
41 28 22
41 29 7
41 30 38
41 31 14
41 32 19
41 33 25
41 34 3
41 35 1
41 36 38
41 37 30
41 38 35
41 39 5
41 40 12
42 0 10
42 1 8
42 2 36
42 3 45
42 4 11
42 5 23
42 6 22
42 7 12
42 8 27
42 9 37
42 10 25
42 11 25
42 12 32
42 13 15
42 14 17
42 15 12
42 16 45
42 17 38
42 18 45
42 19 40
42 20 32
42 21 15
42 22 40
42 23 26
42 24 24
42 25 31
42 26 10
42 27 7
42 28 40
42 29 1
42 30 1
42 31 17
42 32 37
42 33 11
42 34 42
42 35 42
42 36 7
42 37 29
42 38 21
42 39 23
42 40 40
42 41 30
43 0 2
43 1 33
43 2 20
43 3 22
43 4 6
43 5 42
43 6 43
43 7 21
43 8 12
43 9 7
43 10 29
43 11 1
43 12 36
43 13 27
43 14 19
43 15 22
43 16 38
43 17 34
43 18 36
43 19 38
43 20 18
43 21 26
43 22 34
43 23 14
43 24 30
43 25 30
43 26 27
43 27 20
43 28 25
43 29 6
43 30 23
43 31 11
43 32 12
43 33 44
43 34 15
43 35 43
43 36 31
43 37 32
43 38 11
43 39 3
43 40 5
43 41 31
43 42 35
44 0 25
44 1 15
44 2 36
44 3 31
44 4 10
44 5 8
44 6 29
44 7 32
44 8 40
44 9 4
44 10 5
44 11 33
44 12 26
44 13 15
44 14 37
44 15 23
44 16 8
44 17 34
44 18 15
44 19 28
44 20 2
44 21 16
44 22 36
44 23 8
44 24 20
44 25 4
44 26 4
44 27 42
44 28 16
44 29 28
44 30 22
44 31 17
44 32 8
44 33 35
44 34 35
44 35 2
44 36 44
44 37 15
44 38 44
44 39 10
44 40 12
44 41 45
44 42 21
44 43 1
45 0 5
45 1 33
45 2 36
45 3 37
45 4 20
45 5 9
45 6 31
45 7 8
45 8 30
45 9 22
45 10 5
45 11 25
45 12 39
45 13 26
45 14 10
45 15 8
45 16 24
45 17 12
45 18 23
45 19 13
45 20 11
45 21 25
45 22 36
45 23 18
45 24 37
45 25 21
45 26 28
45 27 8
45 28 5
45 29 4
45 30 1
45 31 14
45 32 10
45 33 4
45 34 14
45 35 21
45 36 32
45 37 4
45 38 37
45 39 41
45 40 20
45 41 36
45 42 37
45 43 37
45 44 40
46 0 19
46 1 16
46 2 2
46 3 41
46 4 4
46 5 15
46 6 36
46 7 32
46 8 8
46 9 21
46 10 45
46 11 9
46 12 33
46 13 27
46 14 30
46 15 1
46 16 23
46 17 25
46 18 40
46 19 1
46 20 9
46 21 42
46 22 17
46 23 37
46 24 35
46 25 40
46 26 13
46 27 42
46 28 19
46 29 11
46 30 6
46 31 21
46 32 4
46 33 18
46 34 33
46 35 16
46 36 28
46 37 28
46 38 37
46 39 31
46 40 15
46 41 5
46 42 18
46 43 27
46 44 13
46 45 30
47 0 7
47 1 30
47 2 26
47 3 33
47 4 27
47 5 2
47 6 17
47 7 23
47 8 30
47 9 26
47 10 36
47 11 2
47 12 31
47 13 17
47 14 27
47 15 32
47 16 21
47 17 15
47 18 11
47 19 21
47 20 24
47 21 40
47 22 44
47 23 30
47 24 37
47 25 2
47 26 42
47 27 18
47 28 22
47 29 44
47 30 18
47 31 39
47 32 18
47 33 13
47 34 34
47 35 33
47 36 41
47 37 32
47 38 23
47 39 41
47 40 20
47 41 9
47 42 40
47 43 5
47 44 13
47 45 16
47 46 28
48 0 4
48 1 30
48 2 29
48 3 33
48 4 18
48 5 38
48 6 9
48 7 38
48 8 40
48 9 41
48 10 37
48 11 2
48 12 39
48 13 23
48 14 18
48 15 19
48 16 1
48 17 27
48 18 11
48 19 35
48 20 31
48 21 41
48 22 38
48 23 5
48 24 14
48 25 3
48 26 45
48 27 1
48 28 44
48 29 9
48 30 10
48 31 39
48 32 14
48 33 22
48 34 15
48 35 28
48 36 11
48 37 8
48 38 8
48 39 24
48 40 21
48 41 38
48 42 38
48 43 1
48 44 19
48 45 9
48 46 19
48 47 36
49 0 13
49 1 15
49 2 23
49 3 27
49 4 11
49 5 15
49 6 11
49 7 14
49 8 43
49 9 44
49 10 30
49 11 19
49 12 9
49 13 21
49 14 32
49 15 42
49 16 39
49 17 28
49 18 37
49 19 14
49 20 40
49 21 12
49 22 17
49 23 1
49 24 34
49 25 3
49 26 9
49 27 23
49 28 40
49 29 29
49 30 35
49 31 9
49 32 30
49 33 29
49 34 13
49 35 24
49 36 4
49 37 30
49 38 8
49 39 42
49 40 22
49 41 39
49 42 4
49 43 28
49 44 23
49 45 1
49 46 17
49 47 23
49 48 19
50 0 32
50 1 20
50 2 22
50 3 22
50 4 4
50 5 31
50 6 43
50 7 41
50 8 34
50 9 37
50 10 20
50 11 25
50 12 20
50 13 35
50 14 20
50 15 26
50 16 1
50 17 18
50 18 7
50 19 24
50 20 4
50 21 43
50 22 22
50 23 29
50 24 29
50 25 30
50 26 23
50 27 16
50 28 38
50 29 10
50 30 25
50 31 12
50 32 17
50 33 43
50 34 6
50 35 3
50 36 35
50 37 32
50 38 33
50 39 14
50 40 38
50 41 45
50 42 5
50 43 30
50 44 32
50 45 42
50 46 27
50 47 15
50 48 21
50 49 45
